c defined variables: 19 20 21 22 23 24 25 26 27 28 29 30 31 32 33 34 35 36 37 38 39 40 41 42 43 44 45 46 47 48 49 50 51 52 53 54 55 56 57 58 59 60 61 62 63 64 65 66 67 68 69 70 71 72 73 74 75 76 77 78 79 80 81 82 83 84 85 86 87 88 89 90 91 92 93 94 95 96 97 98 99 100 101 102 103 104 105 106 107 108 109 110 111 112 113 114 115 116 117 118 119 120 121 122 123 124 125 126 127 128 129 130 131 132 133 134 135 136 137 138 139 140 141 142 9 10 11 12 13 14 15 16 
p cnf 1040 2207
a 1 2 3 4 5 6 7 8 0
e 9 10 11 12 13 14 15 16 19 20 21 22 23 24 25 26 27 28 29 30 31 32 33 34 35 36 37 38 39 40 41 42 43 44 45 46 47 48 49 50 51 52 53 54 55 56 57 58 59 60 61 62 63 64 65 66 67 68 69 70 71 72 73 74 75 76 77 78 79 80 81 82 83 84 85 86 87 88 89 90 91 92 93 94 95 96 97 98 99 100 101 102 103 104 105 106 107 108 109 110 111 112 113 114 115 116 117 118 119 120 121 122 123 124 125 126 127 128 129 130 131 132 133 134 135 136 137 138 139 140 141 142 517 518 519 520 521 522 523 524 525 526 527 528 529 530 531 532 533 534 535 536 537 538 539 540 541 542 543 544 545 546 547 548 549 550 551 552 553 554 555 556 557 558 559 560 561 562 563 564 565 566 567 568 569 570 571 572 573 574 575 576 577 578 579 580 581 582 583 584 585 586 587 588 589 590 591 592 593 594 595 596 597 598 599 600 601 602 603 604 605 606 607 608 609 610 611 612 613 614 615 616 617 618 619 620 621 622 623 624 625 626 627 628 629 630 631 632 633 634 635 636 637 638 639 640 641 642 643 644 645 646 647 648 649 650 651 652 653 654 655 656 657 658 659 660 661 662 663 664 665 666 667 668 669 670 671 672 673 674 675 676 677 678 679 680 681 682 683 684 685 686 687 688 689 690 691 692 693 694 695 696 697 698 699 700 701 702 703 704 705 706 707 708 709 710 711 712 713 714 715 716 717 718 719 720 721 722 723 724 725 726 727 728 729 730 731 732 733 734 735 736 737 738 739 740 741 742 743 744 745 746 747 748 749 750 751 752 753 754 755 756 757 758 759 760 761 762 763 764 765 766 767 768 769 770 771 772 773 774 775 776 777 778 779 780 781 782 783 784 785 786 787 788 789 790 791 792 793 794 795 796 797 798 799 800 801 802 803 804 805 806 807 808 809 810 811 812 813 814 815 816 817 818 819 820 821 822 823 824 825 826 827 828 829 830 831 832 833 834 835 836 837 838 839 840 841 842 843 844 845 846 847 848 849 850 851 852 853 854 855 856 857 858 859 860 861 862 863 864 865 866 867 868 869 870 871 872 873 874 875 876 877 878 879 880 881 882 883 884 885 886 887 888 889 890 891 892 893 894 895 896 897 898 899 900 901 902 903 904 905 906 907 908 909 910 911 912 913 914 915 916 917 918 919 920 921 922 923 924 925 926 927 928 929 930 931 932 933 934 935 936 937 938 939 940 941 942 943 944 945 946 947 948 949 950 951 952 953 954 955 956 957 958 959 960 961 962 963 964 965 966 967 968 969 970 971 972 973 974 975 976 977 978 979 980 981 982 983 984 985 986 987 988 989 990 991 992 993 994 995 996 997 998 999 1000 1001 1002 1003 1004 1005 1006 1007 1008 1009 1010 1011 1012 1013 1014 1015 1016 1017 1018 1019 1020 1021 1022 1023 1024 1025 1026 1027 1028 1029 1030 1031 1032 1033 1034 1035 1036 1037 1038 1039 1040 0
d 17 0
d 18 0
609 -9 0
-609 9 0
615 -10 0
-615 10 0
-627 -11 0
627 11 0
703 -12 0
-703 12 0
889 -13 0
-889 13 0
986 -14 0
-986 14 0
-1033 -15 0
1033 15 0
1040 -16 0
-1040 16 0
518 -19 0
-518 19 0
519 -20 0
-519 20 0
520 -21 0
-520 21 0
521 -22 0
-521 22 0
522 -23 0
-522 23 0
523 -24 0
-523 24 0
524 -25 0
-524 25 0
525 -26 0
-525 26 0
526 -27 0
-526 27 0
527 -28 0
-527 28 0
528 -29 0
-528 29 0
529 -30 0
-529 30 0
530 -31 0
-530 31 0
531 -32 0
-531 32 0
32 -33 0
-32 33 0
-33 -34 0
33 34 0
-517 -35 0
517 35 0
-517 -36 0
517 36 0
532 -37 0
-532 37 0
533 -38 0
-533 38 0
534 -39 0
-534 39 0
535 -40 0
-535 40 0
536 -41 0
-536 41 0
537 -42 0
-537 42 0
538 -43 0
-538 43 0
539 -44 0
-539 44 0
540 -45 0
-540 45 0
-541 -46 0
541 46 0
542 -47 0
-542 47 0
543 -48 0
-543 48 0
544 -49 0
-544 49 0
545 -50 0
-545 50 0
546 -51 0
-546 51 0
547 -52 0
-547 52 0
548 -53 0
-548 53 0
549 -54 0
-549 54 0
550 -55 0
-550 55 0
551 -56 0
-551 56 0
552 -57 0
-552 57 0
553 -58 0
-553 58 0
554 -59 0
-554 59 0
555 -60 0
-555 60 0
-556 -61 0
556 61 0
557 -62 0
-557 62 0
558 -63 0
-558 63 0
559 -64 0
-559 64 0
560 -65 0
-560 65 0
561 -66 0
-561 66 0
562 -67 0
-562 67 0
563 -68 0
-563 68 0
564 -69 0
-564 69 0
565 -70 0
-565 70 0
566 -71 0
-566 71 0
567 -72 0
-567 72 0
568 -73 0
-568 73 0
569 -74 0
-569 74 0
570 -75 0
-570 75 0
571 -76 0
-571 76 0
572 -77 0
-572 77 0
-573 -78 0
573 78 0
574 -79 0
-574 79 0
575 -80 0
-575 80 0
576 -81 0
-576 81 0
577 -82 0
-577 82 0
578 -83 0
-578 83 0
579 -84 0
-579 84 0
580 -85 0
-580 85 0
581 -86 0
-581 86 0
582 -87 0
-582 87 0
583 -88 0
-583 88 0
584 -89 0
-584 89 0
-517 -90 0
517 90 0
585 -91 0
-585 91 0
586 -92 0
-586 92 0
587 -93 0
-587 93 0
588 -94 0
-588 94 0
589 -95 0
-589 95 0
590 -96 0
-590 96 0
591 -97 0
-591 97 0
592 -98 0
-592 98 0
593 -99 0
-593 99 0
594 -100 0
-594 100 0
-517 -101 0
517 101 0
517 -102 0
-517 102 0
595 -103 0
-595 103 0
596 -104 0
-596 104 0
597 -105 0
-597 105 0
598 -106 0
-598 106 0
-517 -107 0
517 107 0
-517 -108 0
517 108 0
517 -109 0
-517 109 0
517 -110 0
-517 110 0
599 -111 0
-599 111 0
600 -112 0
-600 112 0
-517 -113 0
517 113 0
-517 -114 0
517 114 0
517 -115 0
-517 115 0
517 -116 0
-517 116 0
-517 -117 0
517 117 0
517 -118 0
-517 118 0
601 -119 0
-601 119 0
602 -120 0
-602 120 0
603 -121 0
-603 121 0
604 -122 0
-604 122 0
-517 -123 0
517 123 0
-517 -124 0
517 124 0
517 -125 0
-517 125 0
517 -126 0
-517 126 0
517 -127 0
-517 127 0
605 -128 0
-605 128 0
606 -129 0
-606 129 0
607 -130 0
-607 130 0
608 -131 0
-608 131 0
-517 -132 0
517 132 0
-517 -133 0
517 133 0
517 -134 0
-517 134 0
517 -135 0
-517 135 0
517 -136 0
-517 136 0
-517 -137 0
517 137 0
-517 -138 0
517 138 0
517 -139 0
-517 139 0
517 -140 0
-517 140 0
517 -141 0
-517 141 0
517 -142 0
-517 142 0
-19 5 0
-19 3 0
19 -5 -3 0
-20 7 0
-20 1 0
20 -7 -1 0
-21 19 0
-21 20 0
21 -19 -20 0
-22 -19 0
-22 -20 0
22 19 20 0
-23 -21 0
-23 -22 0
23 21 22 0
-24 6 0
-24 2 0
24 -6 -2 0
-25 -23 0
-25 -24 0
25 23 24 0
-26 23 0
-26 24 0
26 -23 -24 0
-27 -25 0
-27 -26 0
27 25 26 0
-28 5 0
-28 1 0
28 -5 -1 0
-29 24 0
-29 28 0
29 -24 -28 0
-30 -27 0
-30 -29 0
30 27 29 0
-31 27 0
-31 29 0
31 -27 -29 0
-32 -30 0
-32 -31 0
32 30 31 0
-33 11 0
-33 32 0
33 -11 -32 0
-34 -11 0
-34 -32 0
34 11 32 0
-35 -33 0
-35 -34 0
35 33 34 0
-36 -9 0
-36 28 0
36 9 -28 0
-37 6 0
-37 3 0
37 -6 -3 0
-38 5 0
-38 4 0
38 -5 -4 0
-39 37 0
-39 -38 0
39 -37 38 0
-40 -37 0
-40 38 0
40 37 -38 0
-41 -39 0
-41 -40 0
41 39 40 0
-42 8 0
-42 1 0
42 -8 -1 0
-43 7 0
-43 2 0
43 -7 -2 0
-44 42 0
-44 43 0
44 -42 -43 0
-45 -42 0
-45 -43 0
45 42 43 0
46 -44 0
46 -45 0
-46 44 45 0
-47 41 0
-47 -46 0
47 -41 46 0
-48 -41 0
-48 46 0
48 41 -46 0
-49 -47 0
-49 -48 0
49 47 48 0
-50 -21 0
-50 49 0
50 21 -49 0
-51 -26 0
-51 -29 0
51 26 29 0
-52 -50 0
-52 -51 0
52 50 51 0
-53 21 0
-53 -49 0
53 -21 49 0
-54 -52 0
-54 -53 0
54 52 53 0
-55 -41 0
-55 -45 0
55 41 45 0
-56 -44 0
-56 -55 0
56 44 55 0
-57 6 0
-57 4 0
57 -6 -4 0
-58 7 0
-58 3 0
58 -7 -3 0
-59 57 0
-59 58 0
59 -57 -58 0
-60 -57 0
-60 -58 0
60 57 58 0
61 -59 0
61 -60 0
-61 59 60 0
-62 19 0
-62 57 0
62 -19 -57 0
-63 8 0
-63 2 0
63 -8 -2 0
-64 62 0
-64 63 0
64 -62 -63 0
-65 -62 0
-65 -63 0
65 62 63 0
-66 -64 0
-66 -65 0
66 64 65 0
-67 61 0
-67 -66 0
67 -61 66 0
-68 -61 0
-68 66 0
68 61 -66 0
-69 -67 0
-69 -68 0
69 67 68 0
-70 56 0
-70 -69 0
70 -56 69 0
-71 -54 0
-71 -70 0
71 54 70 0
-72 -56 0
-72 69 0
72 56 -69 0
-73 -71 0
-73 -72 0
73 71 72 0
-74 8 0
-74 3 0
74 -8 -3 0
-75 7 0
-75 4 0
75 -7 -4 0
-76 74 0
-76 75 0
76 -74 -75 0
-77 -74 0
-77 -75 0
77 74 75 0
78 -76 0
78 -77 0
-78 76 77 0
-79 78 0
-79 -59 0
79 -78 59 0
-80 -78 0
-80 59 0
80 78 -59 0
-81 -79 0
-81 -80 0
81 79 80 0
-82 -61 0
-82 -65 0
82 61 65 0
-83 -64 0
-83 -82 0
83 64 82 0
-84 81 0
-84 -83 0
84 -81 83 0
-85 -81 0
-85 83 0
85 81 -83 0
-86 -84 0
-86 -85 0
86 84 85 0
-87 -73 0
-87 -86 0
87 73 86 0
-88 73 0
-88 86 0
88 -73 -86 0
-89 -87 0
-89 -88 0
89 87 88 0
-90 -14 0
-90 -89 0
90 14 89 0
-91 -54 0
-91 -85 0
91 54 85 0
-92 -72 0
-92 -84 0
92 72 84 0
-93 -85 0
-93 -92 0
93 85 92 0
-94 -91 0
-94 -93 0
94 91 93 0
-95 8 0
-95 4 0
95 -8 -4 0
-96 -59 0
-96 -95 0
96 59 95 0
-97 -96 0
-97 -76 0
97 96 76 0
-98 -94 0
-98 97 0
98 94 -97 0
-99 94 0
-99 -97 0
99 -94 97 0
-100 -98 0
-100 -99 0
100 98 99 0
-101 -15 0
-101 100 0
101 15 -100 0
-102 -90 0
-102 -101 0
102 90 101 0
-103 -50 0
-103 -53 0
103 50 53 0
-104 51 0
-104 -103 0
104 -51 103 0
-105 -51 0
-105 103 0
105 51 -103 0
-106 -104 0
-106 -105 0
106 104 105 0
-107 12 0
-107 -106 0
107 -12 106 0
-108 15 0
-108 -100 0
108 -15 100 0
-109 -107 0
-109 -108 0
109 107 108 0
-110 102 0
-110 109 0
110 -102 -109 0
-111 -93 0
-111 -76 0
111 93 76 0
-112 -96 0
-112 -111 0
112 96 111 0
-113 -16 0
-113 112 0
113 16 -112 0
-114 14 0
-114 89 0
114 -14 -89 0
-115 -113 0
-115 -114 0
115 113 114 0
-116 110 0
-116 115 0
116 -110 -115 0
-117 16 0
-117 -112 0
117 -16 112 0
-118 116 0
-118 -117 0
118 -116 117 0
-119 -70 0
-119 -72 0
119 70 72 0
-120 54 0
-120 119 0
120 -54 -119 0
-121 -54 0
-121 -119 0
121 54 119 0
-122 -120 0
-122 -121 0
122 120 121 0
-123 13 0
-123 122 0
123 -13 -122 0
-124 -13 0
-124 -122 0
124 13 122 0
-125 -123 0
-125 -124 0
125 123 124 0
-126 118 0
-126 125 0
126 -118 -125 0
-127 -36 0
-127 126 0
127 36 -126 0
-128 5 0
-128 2 0
128 -5 -2 0
-129 6 0
-129 1 0
129 -6 -1 0
-130 -128 0
-130 -129 0
130 128 129 0
-131 -29 0
-131 -130 0
131 29 130 0
-132 -10 0
-132 131 0
132 10 -131 0
-133 -12 0
-133 106 0
133 12 -106 0
-134 -132 0
-134 -133 0
134 132 133 0
-135 127 0
-135 134 0
135 -127 -134 0
-136 -35 0
-136 135 0
136 35 -135 0
-137 9 0
-137 -28 0
137 -9 28 0
-138 10 0
-138 -131 0
138 -10 131 0
-139 -137 0
-139 -138 0
139 137 138 0
-140 136 0
-140 139 0
140 -136 -139 0
-141 17 0
-141 140 0
141 -17 -140 0
-142 18 0
-142 141 0
142 -18 -141 0
142 0
517 0
3 -518 0
5 -518 0
-3 -5 518 0
1 -519 0
7 -519 0
-1 -7 519 0
19 -520 0
20 -520 0
-19 -20 520 0
-19 -521 0
-20 -521 0
19 20 521 0
-21 -522 0
-22 -522 0
21 22 522 0
2 -523 0
6 -523 0
-2 -6 523 0
-23 -524 0
-24 -524 0
23 24 524 0
23 -525 0
24 -525 0
-23 -24 525 0
-25 -526 0
-26 -526 0
25 26 526 0
1 -527 0
5 -527 0
-1 -5 527 0
24 -528 0
28 -528 0
-24 -28 528 0
-27 -529 0
-29 -529 0
27 29 529 0
27 -530 0
29 -530 0
-27 -29 530 0
-30 -531 0
-31 -531 0
30 31 531 0
3 -532 0
6 -532 0
-3 -6 532 0
4 -533 0
5 -533 0
-4 -5 533 0
37 -534 0
-38 -534 0
-37 38 534 0
-37 -535 0
38 -535 0
37 -38 535 0
-39 -536 0
-40 -536 0
39 40 536 0
1 -537 0
8 -537 0
-1 -8 537 0
2 -538 0
7 -538 0
-2 -7 538 0
42 -539 0
43 -539 0
-42 -43 539 0
-42 -540 0
-43 -540 0
42 43 540 0
-44 -541 0
-45 -541 0
44 45 541 0
41 -542 0
-46 -542 0
-41 46 542 0
-41 -543 0
46 -543 0
41 -46 543 0
-47 -544 0
-48 -544 0
47 48 544 0
-21 -545 0
49 -545 0
21 -49 545 0
-26 -546 0
-29 -546 0
26 29 546 0
-50 -547 0
-51 -547 0
50 51 547 0
21 -548 0
-49 -548 0
-21 49 548 0
-52 -549 0
-53 -549 0
52 53 549 0
-41 -550 0
-45 -550 0
41 45 550 0
-44 -551 0
-55 -551 0
44 55 551 0
4 -552 0
6 -552 0
-4 -6 552 0
3 -553 0
7 -553 0
-3 -7 553 0
57 -554 0
58 -554 0
-57 -58 554 0
-57 -555 0
-58 -555 0
57 58 555 0
-59 -556 0
-60 -556 0
59 60 556 0
19 -557 0
57 -557 0
-19 -57 557 0
2 -558 0
8 -558 0
-2 -8 558 0
62 -559 0
63 -559 0
-62 -63 559 0
-62 -560 0
-63 -560 0
62 63 560 0
-64 -561 0
-65 -561 0
64 65 561 0
61 -562 0
-66 -562 0
-61 66 562 0
-61 -563 0
66 -563 0
61 -66 563 0
-67 -564 0
-68 -564 0
67 68 564 0
56 -565 0
-69 -565 0
-56 69 565 0
-54 -566 0
-70 -566 0
54 70 566 0
-56 -567 0
69 -567 0
56 -69 567 0
-71 -568 0
-72 -568 0
71 72 568 0
3 -569 0
8 -569 0
-3 -8 569 0
4 -570 0
7 -570 0
-4 -7 570 0
74 -571 0
75 -571 0
-74 -75 571 0
-74 -572 0
-75 -572 0
74 75 572 0
-76 -573 0
-77 -573 0
76 77 573 0
-59 -574 0
78 -574 0
59 -78 574 0
59 -575 0
-78 -575 0
-59 78 575 0
-79 -576 0
-80 -576 0
79 80 576 0
-61 -577 0
-65 -577 0
61 65 577 0
-64 -578 0
-82 -578 0
64 82 578 0
81 -579 0
-83 -579 0
-81 83 579 0
-81 -580 0
83 -580 0
81 -83 580 0
-84 -581 0
-85 -581 0
84 85 581 0
-73 -582 0
-86 -582 0
73 86 582 0
73 -583 0
86 -583 0
-73 -86 583 0
-87 -584 0
-88 -584 0
87 88 584 0
-54 -585 0
-85 -585 0
54 85 585 0
-72 -586 0
-84 -586 0
72 84 586 0
-85 -587 0
-92 -587 0
85 92 587 0
-91 -588 0
-93 -588 0
91 93 588 0
4 -589 0
8 -589 0
-4 -8 589 0
-59 -590 0
-95 -590 0
59 95 590 0
-76 -591 0
-96 -591 0
76 96 591 0
-94 -592 0
97 -592 0
94 -97 592 0
94 -593 0
-97 -593 0
-94 97 593 0
-98 -594 0
-99 -594 0
98 99 594 0
-50 -595 0
-53 -595 0
50 53 595 0
51 -596 0
-103 -596 0
-51 103 596 0
-51 -597 0
103 -597 0
51 -103 597 0
-104 -598 0
-105 -598 0
104 105 598 0
-76 -599 0
-93 -599 0
76 93 599 0
-96 -600 0
-111 -600 0
96 111 600 0
-70 -601 0
-72 -601 0
70 72 601 0
54 -602 0
119 -602 0
-54 -119 602 0
-54 -603 0
-119 -603 0
54 119 603 0
-120 -604 0
-121 -604 0
120 121 604 0
2 -605 0
5 -605 0
-2 -5 605 0
1 -606 0
6 -606 0
-1 -6 606 0
-128 -607 0
-129 -607 0
128 129 607 0
-29 -608 0
-130 -608 0
29 130 608 0
1 -609 0
5 -609 0
-1 -5 609 0
2 -610 0
5 -610 0
-2 -5 610 0
1 -611 0
6 -611 0
-1 -6 611 0
-610 -612 0
-611 -612 0
610 611 612 0
2 -613 0
6 -613 0
-2 -6 613 0
609 -614 0
613 -614 0
-609 -613 614 0
-612 -615 0
-614 -615 0
612 614 615 0
-3 -616 0
-7 -616 0
3 7 616 0
3 -617 0
7 -617 0
-3 -7 617 0
609 -618 0
-617 -618 0
-609 617 618 0
-616 -619 0
618 -619 0
616 -618 619 0
1 -620 0
7 -620 0
-1 -7 620 0
3 -621 0
5 -621 0
-3 -5 621 0
-620 -622 0
-621 -622 0
620 621 622 0
613 -623 0
-622 -623 0
-613 622 623 0
-613 -624 0
622 -624 0
613 -622 624 0
-609 -625 0
-624 -625 0
609 624 625 0
-623 -626 0
625 -626 0
623 -625 626 0
-619 -627 0
-626 -627 0
619 626 627 0
-4 -628 0
-8 -628 0
4 8 628 0
4 -629 0
5 -629 0
-4 -5 629 0
1 -630 0
8 -630 0
-1 -8 630 0
629 -631 0
630 -631 0
-629 -630 631 0
-628 -632 0
-631 -632 0
628 631 632 0
-7 -633 0
-632 -633 0
7 632 633 0
-620 -634 0
-633 -634 0
620 633 634 0
4 -635 0
8 -635 0
-4 -8 635 0
-629 -636 0
-630 -636 0
629 630 636 0
-635 -637 0
-636 -637 0
635 636 637 0
-2 -638 0
637 -638 0
2 -637 638 0
2 -639 0
7 -639 0
-2 -7 639 0
-632 -640 0
639 -640 0
632 -639 640 0
-638 -641 0
-640 -641 0
638 640 641 0
621 -642 0
-641 -642 0
-621 641 642 0
637 -643 0
639 -643 0
-637 -639 643 0
7 -644 0
-643 -644 0
-7 643 644 0
-617 -645 0
-644 -645 0
617 644 645 0
-642 -646 0
-645 -646 0
642 645 646 0
-6 -647 0
-646 -647 0
6 646 647 0
-2 -648 0
-3 -648 0
2 3 648 0
632 -649 0
-645 -649 0
-632 645 649 0
648 -650 0
-649 -650 0
-648 649 650 0
-647 -651 0
-650 -651 0
647 650 651 0
-634 -652 0
-651 -652 0
634 651 652 0
3 -653 0
6 -653 0
-3 -6 653 0
-629 -654 0
-653 -654 0
629 653 654 0
629 -655 0
653 -655 0
-629 -653 655 0
6 -656 0
610 -656 0
-6 -610 656 0
3 -657 0
656 -657 0
-3 -656 657 0
-655 -658 0
-657 -658 0
655 657 658 0
-4 -659 0
653 -659 0
4 -653 659 0
2 -660 0
-659 -660 0
-2 659 660 0
-658 -661 0
-660 -661 0
658 660 661 0
-654 -662 0
-661 -662 0
654 661 662 0
-1 -663 0
-639 -663 0
1 639 663 0
-662 -664 0
663 -664 0
662 -663 664 0
-7 -665 0
-8 -665 0
7 8 665 0
7 -666 0
630 -666 0
-7 -630 666 0
-665 -667 0
-666 -667 0
665 666 667 0
655 -668 0
-667 -668 0
-655 667 668 0
7 -669 0
8 -669 0
-7 -8 669 0
609 -670 0
-665 -670 0
-609 665 670 0
-669 -671 0
670 -671 0
669 -670 671 0
659 -672 0
671 -672 0
-659 -671 672 0
-668 -673 0
-672 -673 0
668 672 673 0
-2 -674 0
-673 -674 0
2 673 674 0
-611 -675 0
639 -675 0
611 -639 675 0
-3 -676 0
-8 -676 0
3 8 676 0
630 -677 0
653 -677 0
-630 -653 677 0
-676 -678 0
-677 -678 0
676 677 678 0
-675 -679 0
-678 -679 0
675 678 679 0
2 -680 0
8 -680 0
-2 -8 680 0
620 -681 0
680 -681 0
-620 -680 681 0
-8 -682 0
-639 -682 0
8 639 682 0
-681 -683 0
-682 -683 0
681 682 683 0
-6 -684 0
-683 -684 0
6 683 684 0
-679 -685 0
-684 -685 0
679 684 685 0
-5 -686 0
-685 -686 0
5 685 686 0
-628 -687 0
-635 -687 0
628 635 687 0
616 -688 0
687 -688 0
-616 -687 688 0
-616 -689 0
-687 -689 0
616 687 689 0
-688 -690 0
-689 -690 0
688 689 690 0
614 -691 0
-690 -691 0
-614 690 691 0
3 -692 0
4 -692 0
-3 -4 692 0
5 -693 0
-692 -693 0
-5 692 693 0
2 -694 0
-693 -694 0
-2 693 694 0
653 -695 0
-694 -695 0
-653 694 695 0
-1 -696 0
639 -696 0
1 -639 696 0
-654 -697 0
696 -697 0
654 -696 697 0
-695 -698 0
697 -698 0
695 -697 698 0
-691 -699 0
-698 -699 0
691 698 699 0
-686 -700 0
699 -700 0
686 -699 700 0
-674 -701 0
700 -701 0
674 -700 701 0
-664 -702 0
701 -702 0
664 -701 702 0
-652 -703 0
702 -703 0
652 -702 703 0
-7 -704 0
680 -704 0
7 -680 704 0
-8 -705 0
617 -705 0
8 -617 705 0
2 -706 0
3 -706 0
-2 -3 706 0
7 -707 0
706 -707 0
-7 -706 707 0
8 -708 0
-707 -708 0
-8 707 708 0
-705 -709 0
-708 -709 0
705 708 709 0
-631 -710 0
-709 -710 0
631 709 710 0
704 -711 0
-710 -711 0
-704 710 711 0
-2 -712 0
-617 -712 0
2 617 712 0
-709 -713 0
-712 -713 0
709 712 713 0
-6 -714 0
12 -714 0
6 -12 714 0
-713 -715 0
714 -715 0
713 -714 715 0
-3 -716 0
715 -716 0
3 -715 716 0
5 -717 0
617 -717 0
-5 -617 717 0
-716 -718 0
-717 -718 0
716 717 718 0
-643 -719 0
718 -719 0
643 -718 719 0
4 -720 0
-617 -720 0
-4 617 720 0
-8 -721 0
639 -721 0
8 -639 721 0
-720 -722 0
721 -722 0
720 -721 722 0
-719 -723 0
722 -723 0
719 -722 723 0
-711 -724 0
-723 -724 0
711 723 724 0
1 -725 0
-724 -725 0
-1 724 725 0
-2 -726 0
-4 -726 0
2 4 726 0
666 -727 0
726 -727 0
-666 -726 727 0
-718 -728 0
727 -728 0
718 -727 728 0
617 -729 0
631 -729 0
-617 -631 729 0
-7 -730 0
630 -730 0
7 -630 730 0
638 -731 0
730 -731 0
-638 -730 731 0
-729 -732 0
-731 -732 0
729 731 732 0
-728 -733 0
732 -733 0
728 -732 733 0
-2 -734 0
-733 -734 0
2 733 734 0
-629 -735 0
-715 -735 0
629 715 735 0
-3 -736 0
680 -736 0
3 -680 736 0
-635 -737 0
-720 -737 0
635 720 737 0
-736 -738 0
-737 -738 0
736 737 738 0
696 -739 0
-738 -739 0
-696 738 739 0
-735 -740 0
739 -740 0
735 -739 740 0
-734 -741 0
-740 -741 0
734 740 741 0
-725 -742 0
741 -742 0
725 -741 742 0
-6 -743 0
-742 -743 0
6 742 743 0
4 -744 0
-680 -744 0
-4 680 744 0
12 -745 0
-744 -745 0
-12 744 745 0
4 -746 0
6 -746 0
-4 -6 746 0
-676 -747 0
-746 -747 0
676 746 747 0
745 -748 0
-747 -748 0
-745 747 748 0
11 -749 0
-748 -749 0
-11 748 749 0
613 -750 0
-749 -750 0
-613 749 750 0
-726 -751 0
-750 -751 0
726 750 751 0
-1 -752 0
-3 -752 0
1 3 752 0
-751 -753 0
752 -753 0
751 -752 753 0
1 -754 0
-12 -754 0
-1 12 754 0
656 -755 0
754 -755 0
-656 -754 755 0
-623 -756 0
-755 -756 0
623 755 756 0
-620 -757 0
-704 -757 0
620 704 757 0
-756 -758 0
-757 -758 0
756 757 758 0
-4 -759 0
-758 -759 0
4 758 759 0
-753 -760 0
759 -760 0
753 -759 760 0
-12 -761 0
648 -761 0
12 -648 761 0
-645 -762 0
-761 -762 0
645 761 762 0
-634 -763 0
-762 -763 0
634 762 763 0
4 -764 0
-696 -764 0
-4 696 764 0
620 -765 0
-629 -765 0
-620 629 765 0
-643 -766 0
765 -766 0
643 -765 766 0
-764 -767 0
-766 -767 0
764 766 767 0
-763 -768 0
-767 -768 0
763 767 768 0
-3 -769 0
-756 -769 0
3 756 769 0
4 -770 0
-6 -770 0
-4 6 770 0
639 -771 0
-770 -771 0
-639 770 771 0
-635 -772 0
752 -772 0
635 -752 772 0
771 -773 0
772 -773 0
-771 -772 773 0
-769 -774 0
-773 -774 0
769 773 774 0
4 -775 0
-5 -775 0
-4 5 775 0
676 -776 0
771 -776 0
-676 -771 776 0
620 -777 0
-776 -777 0
-620 776 777 0
-775 -778 0
-777 -778 0
775 777 778 0
-774 -779 0
778 -779 0
774 -778 779 0
-768 -780 0
779 -780 0
768 -779 780 0
-760 -781 0
780 -781 0
760 -780 781 0
639 -782 0
746 -782 0
-639 -746 782 0
-8 -783 0
782 -783 0
8 -782 783 0
620 -784 0
-783 -784 0
-620 783 784 0
-653 -785 0
-784 -785 0
653 784 785 0
-726 -786 0
-785 -786 0
726 785 786 0
-3 -787 0
-786 -787 0
3 786 787 0
-751 -788 0
787 -788 0
751 -787 788 0
-715 -789 0
-788 -789 0
715 788 789 0
-5 -790 0
-789 -790 0
5 789 790 0
6 -791 0
7 -791 0
-6 -7 791 0
-4 -792 0
791 -792 0
4 -791 792 0
-3 -793 0
-4 -793 0
3 4 793 0
-5 -794 0
-793 -794 0
5 793 794 0
-792 -795 0
794 -795 0
792 -794 795 0
681 -796 0
-795 -796 0
-681 795 796 0
3 -797 0
-745 -797 0
-3 745 797 0
-5 -798 0
-8 -798 0
5 8 798 0
-775 -799 0
-798 -799 0
775 798 799 0
-797 -800 0
-799 -800 0
797 799 800 0
-1 -801 0
-8 -801 0
1 8 801 0
-692 -802 0
-793 -802 0
692 793 802 0
801 -803 0
802 -803 0
-801 -802 803 0
-746 -804 0
754 -804 0
746 -754 804 0
5 -805 0
-804 -805 0
-5 804 805 0
-803 -806 0
805 -806 0
803 -805 806 0
-800 -807 0
-806 -807 0
800 806 807 0
-621 -808 0
-798 -808 0
621 798 808 0
4 -809 0
808 -809 0
-4 -808 809 0
5 -810 0
-8 -810 0
-5 8 810 0
12 -811 0
810 -811 0
-12 -810 811 0
-3 -812 0
8 -812 0
3 -8 812 0
-4 -813 0
-812 -813 0
4 812 813 0
-811 -814 0
-813 -814 0
811 813 814 0
-809 -815 0
814 -815 0
809 -814 815 0
8 -816 0
609 -816 0
-8 -609 816 0
-7 -817 0
-816 -817 0
7 816 817 0
-815 -818 0
817 -818 0
815 -817 818 0
-807 -819 0
818 -819 0
807 -818 819 0
-796 -820 0
-819 -820 0
796 819 820 0
613 -821 0
-820 -821 0
-613 820 821 0
-1 -822 0
680 -822 0
1 -680 822 0
746 -823 0
822 -823 0
-746 -822 823 0
617 -824 0
628 -824 0
-617 -628 824 0
-823 -825 0
-824 -825 0
823 824 825 0
707 -826 0
-825 -826 0
-707 825 826 0
2 -827 0
-4 -827 0
-2 4 827 0
730 -828 0
827 -828 0
-730 -827 828 0
-826 -829 0
-828 -829 0
826 828 829 0
-5 -830 0
653 -830 0
5 -653 830 0
-829 -831 0
830 -831 0
829 -830 831 0
2 -832 0
-8 -832 0
-2 8 832 0
1 -833 0
629 -833 0
-1 -629 833 0
-832 -834 0
833 -834 0
832 -833 834 0
617 -835 0
-834 -835 0
-617 834 835 0
-7 -836 0
-630 -836 0
7 630 836 0
3 -837 0
-7 -837 0
-3 7 837 0
-3 -838 0
-12 -838 0
3 12 838 0
629 -839 0
838 -839 0
-629 -838 839 0
-837 -840 0
-839 -840 0
837 839 840 0
-836 -841 0
-840 -841 0
836 840 841 0
-2 -842 0
617 -842 0
2 -617 842 0
8 -843 0
842 -843 0
-8 -842 843 0
-620 -844 0
680 -844 0
620 -680 844 0
-6 -845 0
-844 -845 0
6 844 845 0
-843 -846 0
845 -846 0
843 -845 846 0
-841 -847 0
846 -847 0
841 -846 847 0
-835 -848 0
847 -848 0
835 -847 848 0
-4 -849 0
837 -849 0
4 -837 849 0
-2 -850 0
-849 -850 0
2 849 850 0
-610 -851 0
-850 -851 0
610 850 851 0
-2 -852 0
-775 -852 0
2 775 852 0
-837 -853 0
-852 -853 0
837 852 853 0
8 -854 0
611 -854 0
-8 -611 854 0
-793 -855 0
-854 -855 0
793 854 855 0
-853 -856 0
-855 -856 0
853 855 856 0
-851 -857 0
856 -857 0
851 -856 857 0
4 -858 0
7 -858 0
-4 -7 858 0
-5 -859 0
12 -859 0
5 -12 859 0
858 -860 0
-859 -860 0
-858 859 860 0
-2 -861 0
6 -861 0
2 -6 861 0
-648 -862 0
-861 -862 0
648 861 862 0
-630 -863 0
-862 -863 0
630 862 863 0
-860 -864 0
863 -864 0
860 -863 864 0
-621 -865 0
720 -865 0
621 -720 865 0
3 -866 0
-4 -866 0
-3 4 866 0
7 -867 0
-609 -867 0
-7 609 867 0
866 -868 0
867 -868 0
-866 -867 868 0
-865 -869 0
-868 -869 0
865 868 869 0
864 -870 0
869 -870 0
-864 -869 870 0
692 -871 0
791 -871 0
-692 -791 871 0
7 -872 0
801 -872 0
-7 -801 872 0
866 -873 0
872 -873 0
-866 -872 873 0
-871 -874 0
-873 -874 0
871 873 874 0
1 -875 0
-7 -875 0
-1 7 875 0
706 -876 0
-875 -876 0
-706 875 876 0
4 -877 0
-876 -877 0
-4 876 877 0
613 -878 0
-635 -878 0
-613 635 878 0
717 -879 0
878 -879 0
-717 -878 879 0
-877 -880 0
879 -880 0
877 -879 880 0
-874 -881 0
880 -881 0
874 -880 881 0
-870 -882 0
-881 -882 0
870 881 882 0
-857 -883 0
882 -883 0
857 -882 883 0
-848 -884 0
883 -884 0
848 -883 884 0
-831 -885 0
884 -885 0
831 -884 885 0
-821 -886 0
885 -886 0
821 -885 886 0
-790 -887 0
886 -887 0
790 -886 887 0
-781 -888 0
887 -888 0
781 -887 888 0
-743 -889 0
888 -889 0
743 -888 889 0
816 -890 0
-763 -890 0
-816 763 890 0
-3 -891 0
-620 -891 0
3 620 891 0
-629 -892 0
-680 -892 0
629 680 892 0
891 -893 0
892 -893 0
-891 -892 893 0
782 -894 0
-893 -894 0
-782 893 894 0
-890 -895 0
894 -895 0
890 -894 895 0
-13 -896 0
861 -896 0
13 -861 896 0
858 -897 0
896 -897 0
-858 -896 897 0
746 -898 0
-897 -898 0
-746 897 898 0
-895 -899 0
898 -899 0
895 -898 899 0
13 -900 0
770 -900 0
-13 -770 900 0
-1 -901 0
900 -901 0
1 -900 901 0
8 -902 0
639 -902 0
-8 -639 902 0
770 -903 0
-902 -903 0
-770 902 903 0
630 -904 0
827 -904 0
-630 -827 904 0
-3 -905 0
-904 -905 0
3 904 905 0
-903 -906 0
905 -906 0
903 -905 906 0
-901 -907 0
906 -907 0
901 -906 907 0
-899 -908 0
907 -908 0
899 -907 908 0
-13 -909 0
-775 -909 0
13 775 909 0
8 -910 0
-770 -910 0
-8 770 910 0
-909 -911 0
910 -911 0
909 -910 911 0
-8 -912 0
900 -912 0
8 -900 912 0
-13 -913 0
628 -913 0
13 -628 913 0
842 -914 0
-913 -914 0
-842 913 914 0
-912 -915 0
914 -915 0
912 -914 915 0
-911 -916 0
915 -916 0
911 -915 916 0
3 -917 0
8 -917 0
-3 -8 917 0
1 -918 0
-13 -918 0
-1 13 918 0
917 -919 0
-918 -919 0
-917 918 919 0
692 -920 0
669 -920 0
-692 -669 920 0
-746 -921 0
-920 -921 0
746 920 921 0
-919 -922 0
921 -922 0
919 -921 922 0
6 -923 0
-609 -923 0
-6 609 923 0
-6 -924 0
609 -924 0
6 -609 924 0
4 -925 0
-924 -925 0
-4 924 925 0
-923 -926 0
925 -926 0
923 -925 926 0
-922 -927 0
-926 -927 0
922 926 927 0
8 -928 0
-927 -928 0
-8 927 928 0
-6 -929 0
-13 -929 0
6 13 929 0
-770 -930 0
-929 -930 0
770 929 930 0
-629 -931 0
-930 -931 0
629 930 931 0
6 -932 0
629 -932 0
-6 -629 932 0
-13 -933 0
932 -933 0
13 -932 933 0
-931 -934 0
-933 -934 0
931 933 934 0
-8 -935 0
-934 -935 0
8 934 935 0
-680 -936 0
746 -936 0
680 -746 936 0
808 -937 0
936 -937 0
-808 -936 937 0
707 -938 0
-937 -938 0
-707 937 938 0
-935 -939 0
938 -939 0
935 -938 939 0
-928 -940 0
939 -940 0
928 -939 940 0
-916 -941 0
-940 -941 0
916 940 941 0
-2 -942 0
-6 -942 0
2 6 942 0
631 -943 0
942 -943 0
-631 -942 943 0
613 -944 0
628 -944 0
-613 -628 944 0
617 -945 0
-944 -945 0
-617 944 945 0
-943 -946 0
945 -946 0
943 -945 946 0
-941 -947 0
946 -947 0
941 -946 947 0
5 -948 0
6 -948 0
-5 -6 948 0
-737 -949 0
948 -949 0
737 -948 949 0
706 -950 0
-949 -950 0
-706 949 950 0
-8 -951 0
-617 -951 0
8 617 951 0
932 -952 0
951 -952 0
-932 -951 952 0
8 -953 0
-746 -953 0
-8 746 953 0
-812 -954 0
-953 -954 0
812 953 954 0
-952 -955 0
954 -955 0
952 -954 955 0
-950 -956 0
-955 -956 0
950 955 956 0
-13 -957 0
-956 -957 0
13 956 957 0
-837 -958 0
932 -958 0
837 -932 958 0
8 -959 0
-655 -959 0
-8 655 959 0
13 -960 0
-959 -960 0
-13 959 960 0
-958 -961 0
960 -961 0
958 -960 961 0
-957 -962 0
-961 -962 0
957 961 962 0
-2 -963 0
-962 -963 0
2 962 963 0
609 -964 0
634 -964 0
-609 -634 964 0
676 -965 0
-964 -965 0
-676 964 965 0
-13 -966 0
-950 -966 0
13 950 966 0
832 -967 0
-932 -967 0
-832 932 967 0
13 -968 0
-746 -968 0
-13 746 968 0
-754 -969 0
968 -969 0
754 -968 969 0
706 -970 0
-969 -970 0
-706 969 970 0
-967 -971 0
-970 -971 0
967 970 971 0
-966 -972 0
-971 -972 0
966 971 972 0
13 -973 0
736 -973 0
-13 -736 973 0
8 -974 0
-973 -974 0
-8 973 974 0
-746 -975 0
-974 -975 0
746 974 975 0
-2 -976 0
13 -976 0
2 -13 976 0
-942 -977 0
-976 -977 0
942 976 977 0
-726 -978 0
977 -978 0
726 -977 978 0
-975 -979 0
978 -979 0
975 -978 979 0
-3 -980 0
-979 -980 0
3 979 980 0
-972 -981 0
-980 -981 0
972 980 981 0
-965 -982 0
981 -982 0
965 -981 982 0
-963 -983 0
982 -983 0
963 -982 983 0
-7 -984 0
-983 -984 0
7 983 984 0
-947 -985 0
-984 -985 0
947 984 985 0
-908 -986 0
985 -986 0
908 -985 986 0
14 -987 0
617 -987 0
-14 -617 987 0
-610 -988 0
987 -988 0
610 -987 988 0
746 -989 0
-988 -989 0
-746 988 989 0
920 -990 0
-989 -990 0
-920 989 990 0
871 -991 0
-990 -991 0
-871 990 991 0
6 -992 0
693 -992 0
-6 -693 992 0
665 -993 0
-992 -993 0
-665 992 993 0
-871 -994 0
-987 -994 0
871 987 994 0
-993 -995 0
994 -995 0
993 -994 995 0
-8 -996 0
-995 -996 0
8 995 996 0
7 -997 0
-14 -997 0
-7 14 997 0
676 -998 0
-997 -998 0
-676 997 998 0
-792 -999 0
998 -999 0
792 -998 999 0
-620 -1000 0
-791 -1000 0
620 791 1000 0
977 -1001 0
-1000 -1001 0
-977 1000 1001 0
-7 -1002 0
14 -1002 0
7 -14 1002 0
-613 -1003 0
1002 -1003 0
613 -1002 1003 0
-997 -1004 0
-1003 -1004 0
997 1003 1004 0
-1001 -1005 0
1004 -1005 0
1001 -1004 1005 0
812 -1006 0
-1005 -1006 0
-812 1005 1006 0
-999 -1007 0
-1006 -1007 0
999 1006 1007 0
-996 -1008 0
1007 -1008 0
996 -1007 1008 0
-13 -1009 0
609 -1009 0
13 -609 1009 0
812 -1010 0
1002 -1010 0
-812 -1002 1010 0
1009 -1011 0
1010 -1011 0
-1009 -1010 1011 0
-1008 -1012 0
-1011 -1012 0
1008 1011 1012 0
610 -1013 0
620 -1013 0
-610 -620 1013 0
-791 -1014 0
-1013 -1014 0
791 1013 1014 0
-14 -1015 0
-1014 -1015 0
14 1014 1015 0
1 -1016 0
610 -1016 0
-1 -610 1016 0
-7 -1017 0
-948 -1017 0
7 948 1017 0
-1016 -1018 0
-1017 -1018 0
1016 1017 1018 0
14 -1019 0
-613 -1019 0
-14 613 1019 0
-1018 -1020 0
1019 -1020 0
1018 -1019 1020 0
4 -1021 0
917 -1021 0
-4 -917 1021 0
-1020 -1022 0
1021 -1022 0
1020 -1021 1022 0
-1015 -1023 0
1022 -1023 0
1015 -1022 1023 0
-4 -1024 0
-917 -1024 0
4 917 1024 0
-726 -1025 0
-849 -1025 0
726 849 1025 0
3 -1026 0
13 -1026 0
-3 -13 1026 0
7 -1027 0
-1026 -1027 0
-7 1026 1027 0
14 -1028 0
-1027 -1028 0
-14 1027 1028 0
-1025 -1029 0
1028 -1029 0
1025 -1028 1029 0
-1024 -1030 0
-1029 -1030 0
1024 1029 1030 0
-1023 -1031 0
1030 -1031 0
1023 -1030 1031 0
-1012 -1032 0
1031 -1032 0
1012 -1031 1032 0
-991 -1033 0
-1032 -1033 0
991 1032 1033 0
14 -1034 0
631 -1034 0
-14 -631 1034 0
4 -1035 0
613 -1035 0
-4 -613 1035 0
-1034 -1036 0
1035 -1036 0
1034 -1035 1036 0
616 -1037 0
-1036 -1037 0
-616 1036 1037 0
15 -1038 0
-617 -1038 0
-15 617 1038 0
635 -1039 0
-1038 -1039 0
-635 1038 1039 0
-1037 -1040 0
1039 -1040 0
1037 -1039 1040 0
